80 8
27 47
84 2
54 32
28 10
76 72
76 66
40 84
4 67
25 21
29 94
79 42
87 57
34 37
17 96
79 61
48 61
51 99
10 46
86 3
87 68
21 50
23 92
66 74
14 48
76 98
85 43
92 21
82 61
50 57
82 94
74 95
65 32
99 80
17 100
38 72
54 41
21 80
4 61
23 6
96 96
30 50
12 82
53 24
77 4
61 73
3 81
42 22
35 37
17 65
89 64
64 27
77 10
42 20
76 27
93 57
96 6
30 50
54 31
49 58
76 90
10 77
80 74
74 57
93 91
56 34
89 59
65 48
41 95
71 97
11 86
30 71
79 72
48 77
25 51
33 96
63 45
9 99
35 67
82 50
3 49
527 711
600 798
358 570
284 450
295 465
354 491
410 661
313 489
